(declare-fun temp7466_1 () (_ BitVec 64))
(declare-fun temp7466_2 () (_ BitVec 64))
(declare-fun var77740 () (_ BitVec 64))
(declare-fun k!0 () Bool)
(declare-fun ARGNAME_filter_NAMEEND_DIM () (_ BitVec 64))
(declare-fun ARGNAME_data_format_NAMEEND_STRFMT () (_ BitVec 64))
(declare-fun temp7466_3 () (_ BitVec 64))
(declare-fun ARGNAME_out_backprop_NAMEEND_DIM () (_ BitVec 64))
(declare-fun var77770 () (_ BitVec 64))
(declare-fun temp7466_4 () (_ BitVec 64))
(declare-fun temp7466_5 () (_ BitVec 64))
(declare-fun ARGNAME_filter_NAMEEND_DIMSIZE
             ()
             (Array (_ BitVec 64) (_ BitVec 64)))
(declare-fun temp7466_6 () (_ BitVec 64))
(declare-fun temp7466_7 () (_ BitVec 64))
(declare-fun temp7466_8 () (_ BitVec 64))
(declare-fun temp7466_9 () (_ BitVec 64))
(declare-fun temp7466_10 () (_ BitVec 64))
(declare-fun temp7466_11 () (_ BitVec 64))
(declare-fun temp7466_12 () (_ BitVec 64))
(declare-fun temp7466_13 () (_ BitVec 64))
(declare-fun temp7466_14 () (_ BitVec 64))
(declare-fun temp7466_15 () (_ BitVec 64))
(declare-fun temp7466_16 () (_ BitVec 64))
(declare-fun temp7466_17 () (_ BitVec 64))
(declare-fun temp7466_18 () (_ BitVec 64))
(declare-fun var77799 () (_ BitVec 64))
(declare-fun temp7466_19 () (_ BitVec 64))
(declare-fun ARGNAME_out_backprop_NAMEEND_DIMSIZE
             ()
             (Array (_ BitVec 64) (_ BitVec 64)))
(declare-fun temp7466_20 () (_ BitVec 64))
(declare-fun temp7466_21 () (_ BitVec 64))
(declare-fun temp7466_22 () (_ BitVec 64))
(declare-fun temp7466_23 () (_ BitVec 64))
(declare-fun temp7466_24 () (_ BitVec 64))
(declare-fun temp7466_25 () (_ BitVec 64))
(declare-fun temp7466_26 () (_ BitVec 64))
(declare-fun temp7466_27 () (_ BitVec 64))
(declare-fun temp7466_28 () (_ BitVec 64))
(declare-fun temp7466_29 () (_ BitVec 64))
(declare-fun temp7466_30 () (_ BitVec 64))
(declare-fun temp7466_31 () (_ BitVec 64))
(declare-fun temp7466_32 () (_ BitVec 64))
(declare-fun var77832 () (_ BitVec 64))
(declare-fun temp7466_33 () (_ BitVec 64))
(declare-fun temp7466_34 () (_ BitVec 64))
(declare-fun var77833 () (_ BitVec 64))
(declare-fun var77834 () (_ BitVec 64))
(declare-fun temp7466_35 () (_ BitVec 64))
(declare-fun temp7466_36 () (_ BitVec 64))
(declare-fun var275510 () (_ BitVec 64))
(declare-fun temp7466_37 () (_ BitVec 64))
(declare-fun var275528 () (_ BitVec 64))
(declare-fun temp7466_38 () (_ BitVec 64))
(declare-fun temp7466_40 () (_ BitVec 64))
(declare-fun temp7466_39 () (_ BitVec 64))
(declare-fun temp7466_42 () (_ BitVec 64))
(declare-fun temp7466_41 () (_ BitVec 64))
(declare-fun temp7466_43 () (_ BitVec 64))
(declare-fun var406582 () (_ BitVec 64))
(declare-fun temp7466_44 () (_ BitVec 64))
(declare-fun var406600 () (_ BitVec 64))
(declare-fun temp7466_45 () (_ BitVec 64))
(declare-fun temp7466_47 () (_ BitVec 64))
(declare-fun temp7466_46 () (_ BitVec 64))
(declare-fun temp7466_48 () (_ BitVec 64))
(declare-fun var603190 () (_ BitVec 64))
(declare-fun temp7466_49 () (_ BitVec 64))
(declare-fun var603208 () (_ BitVec 64))
(declare-fun temp7466_50 () (_ BitVec 64))
(declare-fun temp7466_52 () (_ BitVec 64))
(declare-fun temp7466_51 () (_ BitVec 64))
(declare-fun temp7466_54 () (_ BitVec 64))
(declare-fun temp7466_53 () (_ BitVec 64))
(declare-fun temp7466_56 () (_ BitVec 64))
(declare-fun temp7466_55 () (_ BitVec 64))
(declare-fun temp7466_58 () (_ BitVec 64))
(declare-fun temp7466_57 () (_ BitVec 64))
(declare-fun temp7466_59 () (_ BitVec 64))
(declare-fun var926795 () (_ BitVec 64))
(declare-fun var926774 () (_ BitVec 64))
(declare-fun var795680 () (_ BitVec 64))
(declare-fun temp7466_60 () (_ BitVec 64))
(declare-fun temp7466_61 () (_ BitVec 64))
(declare-fun var1188914 () (_ BitVec 64))
(declare-fun temp7466_62 () (_ BitVec 64))
(declare-fun var1254450 () (_ BitVec 64))
(declare-fun temp7466_63 () (_ BitVec 64))
(declare-fun var1319986 () (_ BitVec 64))
(declare-fun temp7466_64 () (_ BitVec 64))
(declare-fun var78184 () (_ BitVec 64))
(declare-fun temp7466_66 () (_ BitVec 64))
(declare-fun temp7466_65 () (_ BitVec 64))
(declare-fun temp7466_68 () (_ BitVec 64))
(declare-fun temp7466_67 () (_ BitVec 64))
(declare-fun temp7466_69 () (_ BitVec 64))
(declare-fun var78544 () (_ BitVec 64))
(declare-fun temp7466_70 () (_ BitVec 64))
(declare-fun var78545 () (_ BitVec 64))
(assert (or (= ARGNAME_data_format_NAMEEND_STRFMT #x0000000000000000)
    (= ARGNAME_data_format_NAMEEND_STRFMT #x0000000000000001)
    (= ARGNAME_data_format_NAMEEND_STRFMT #x0000000000000002)
    (= ARGNAME_data_format_NAMEEND_STRFMT #x0000000000000003)
    (= ARGNAME_data_format_NAMEEND_STRFMT #x0000000000000004)
    (= ARGNAME_data_format_NAMEEND_STRFMT #x0000000000000005)))
(assert (= temp7466_1 #x0000000000000005))
(assert (= var77740
   (ite (= ARGNAME_filter_NAMEEND_DIM temp7466_1)
        #x0000000000000001
        #x0000000000000000)))
(assert (= temp7466_2 #x0000000000000001))
(assert (= var77740 temp7466_2))
(assert (= temp7466_3 #x0000000000000005))
(assert (= var77770
   (ite (= ARGNAME_out_backprop_NAMEEND_DIM temp7466_3)
        #x0000000000000001
        #x0000000000000000)))
(assert (= temp7466_4 #x0000000000000001))
(assert (= var77770 temp7466_4))
(assert (= temp7466_5 #x0000000000000000))
(assert (= temp7466_6 (select ARGNAME_filter_NAMEEND_DIMSIZE temp7466_5)))
(assert (= temp7466_7 #x0000000000000001))
(assert (= temp7466_8 (select ARGNAME_filter_NAMEEND_DIMSIZE temp7466_7)))
(assert (= temp7466_9 #x0000000000000002))
(assert (= temp7466_10 (select ARGNAME_filter_NAMEEND_DIMSIZE temp7466_9)))
(assert (= temp7466_11 #x0000000000000003))
(assert (= temp7466_12 (select ARGNAME_filter_NAMEEND_DIMSIZE temp7466_11)))
(assert (= temp7466_13 #x0000000000000004))
(assert (= temp7466_14 (select ARGNAME_filter_NAMEEND_DIMSIZE temp7466_13)))
(assert (= temp7466_15 #x0000000000000005))
(assert (= temp7466_16 (select ARGNAME_filter_NAMEEND_DIMSIZE temp7466_15)))
(assert (= temp7466_17 #x0000000000000003))
(assert (= temp7466_18 (select ARGNAME_filter_NAMEEND_DIMSIZE temp7466_17)))
(assert (= var77799 temp7466_18))
(assert (= temp7466_19 #x0000000000000000))
(assert (= temp7466_20 (select ARGNAME_out_backprop_NAMEEND_DIMSIZE temp7466_19)))
(assert (= temp7466_21 #x0000000000000001))
(assert (= temp7466_22 (select ARGNAME_out_backprop_NAMEEND_DIMSIZE temp7466_21)))
(assert (= temp7466_23 #x0000000000000002))
(assert (= temp7466_24 (select ARGNAME_out_backprop_NAMEEND_DIMSIZE temp7466_23)))
(assert (= temp7466_25 #x0000000000000003))
(assert (= temp7466_26 (select ARGNAME_out_backprop_NAMEEND_DIMSIZE temp7466_25)))
(assert (= temp7466_27 #x0000000000000004))
(assert (= temp7466_28 (select ARGNAME_out_backprop_NAMEEND_DIMSIZE temp7466_27)))
(assert (= temp7466_29 #x0000000000000005))
(assert (= temp7466_30 (select ARGNAME_out_backprop_NAMEEND_DIMSIZE temp7466_29)))
(assert (= temp7466_31 #x0000000000000004))
(assert (= temp7466_32 (select ARGNAME_out_backprop_NAMEEND_DIMSIZE temp7466_31)))
(assert (= var77832 temp7466_32))
(assert (= temp7466_33 #x0000000000000004))
(assert (= temp7466_34 (select ARGNAME_filter_NAMEEND_DIMSIZE temp7466_33)))
(assert (= var77833 temp7466_34))
(assert (= var77834 (ite (= var77832 var77833) #x0000000000000001 #x0000000000000000)))
(assert (= temp7466_35 #x0000000000000001))
(assert (= var77834 temp7466_35))
(assert (= temp7466_36 #x0000000000000001))
(assert (= var275510 temp7466_36))
(assert (= temp7466_37 #x0000000000000001))
(assert (= var275528
   (ite (bvslt var275510 temp7466_37) #x0000000000000001 #x0000000000000000)))
(assert (= temp7466_38 #x0000000000000000))
(assert (= var275528 temp7466_38))
(assert (= temp7466_40 #x0000000000000000))
(assert (= temp7466_39 temp7466_40))
(assert (= temp7466_42 #x0000000000000000))
(assert (= temp7466_41 temp7466_42))
(assert (= temp7466_43 #x0000000000000001))
(assert (= var406582 temp7466_43))
(assert (= temp7466_44 #x0000000000000001))
(assert (= var406600
   (ite (bvslt var406582 temp7466_44) #x0000000000000001 #x0000000000000000)))
(assert (= temp7466_45 #x0000000000000000))
(assert (= var406600 temp7466_45))
(assert (= temp7466_47 #x0000000000000000))
(assert (= temp7466_46 temp7466_47))
(assert (= temp7466_48 #x0000000000000001))
(assert (= var603190 temp7466_48))
(assert (= temp7466_49 #x0000000000000001))
(assert (= var603208
   (ite (bvslt var603190 temp7466_49) #x0000000000000001 #x0000000000000000)))
(assert (= temp7466_50 #x0000000000000000))
(assert (= var603208 temp7466_50))
(assert (= temp7466_52 #x0000000000000000))
(assert (= temp7466_51 temp7466_52))
(assert (= temp7466_54 #x00000000000000ff))
(assert (= temp7466_53 temp7466_54))
(assert (= temp7466_56 #x00000000000000ff))
(assert (= temp7466_55 temp7466_56))
(assert (= temp7466_58 #x00000000000000ff))
(assert (= temp7466_57 temp7466_58))
(assert (= temp7466_59 #x0000000000000000))
(assert (= var926795 temp7466_59))
(assert (= var926774 var926795))
(assert (= var795680 var926774))
(assert (= temp7466_60 #x0000000000000000))
(assert (= var795680 temp7466_60))
(assert (= temp7466_61 #x0000000000008000))
(assert (= var1188914 temp7466_61))
(assert (= temp7466_62 #x0000000000040000))
(assert (= var1254450 temp7466_62))
(assert (= temp7466_63 #x0000000000200000))
(assert (= var1319986 temp7466_63))
(assert (= temp7466_64 #x0000000000000001))
(assert (= var78184 temp7466_64))
(assert (= temp7466_66 #x0000000000000001))
(assert (= temp7466_65 temp7466_66))
(assert (= temp7466_68 #x0000000000000001))
(assert (= temp7466_67 temp7466_68))
(assert (= temp7466_69 #x0000000000000000))
(assert (= var78544 temp7466_69))
(assert (= temp7466_70 #x0000000000000001))
(assert (= var78545 (bvadd var78544 temp7466_70)))
(model-add temp7466_1 () (_ BitVec 64) #x0000000000000005)
(model-add temp7466_2 () (_ BitVec 64) #x0000000000000001)
(model-add var77740 () (_ BitVec 64) #x0000000000000001)
(model-del k!0)
(model-add ARGNAME_filter_NAMEEND_DIM
           ()
           (_ BitVec 64)
           (ite k!0 #x0000000000000005 (bvnot #x0000000000000005)))


